CNF/sr25832G1vcol5.cnf
p cnf 250 875
1 2 3 4 5 0
-1 6 0
-2 7 0
-3 8 0
-4 9 0
-5 10 0
-6 -2 0
-7 -3 0
-8 -4 0
-9 -5 0
-6 7 0
-7 8 0
-8 9 0
-9 10 0
10 0
11 12 13 14 15 0
-11 16 0
-12 17 0
-13 18 0
-14 19 0
-15 20 0
-16 -12 0
-17 -13 0
-18 -14 0
-19 -15 0
-16 17 0
-17 18 0
-18 19 0
-19 20 0
20 0
21 22 23 24 25 0
-21 26 0
-22 27 0
-23 28 0
-24 29 0
-25 30 0
-26 -22 0
-27 -23 0
-28 -24 0
-29 -25 0
-26 27 0
-27 28 0
-28 29 0
-29 30 0
30 0
31 32 33 34 35 0
-31 36 0
-32 37 0
-33 38 0
-34 39 0
-35 40 0
-36 -32 0
-37 -33 0
-38 -34 0
-39 -35 0
-36 37 0
-37 38 0
-38 39 0
-39 40 0
40 0
41 42 43 44 45 0
-41 46 0
-42 47 0
-43 48 0
-44 49 0
-45 50 0
-46 -42 0
-47 -43 0
-48 -44 0
-49 -45 0
-46 47 0
-47 48 0
-48 49 0
-49 50 0
50 0
51 52 53 54 55 0
-51 56 0
-52 57 0
-53 58 0
-54 59 0
-55 60 0
-56 -52 0
-57 -53 0
-58 -54 0
-59 -55 0
-56 57 0
-57 58 0
-58 59 0
-59 60 0
60 0
61 62 63 64 65 0
-61 66 0
-62 67 0
-63 68 0
-64 69 0
-65 70 0
-66 -62 0
-67 -63 0
-68 -64 0
-69 -65 0
-66 67 0
-67 68 0
-68 69 0
-69 70 0
70 0
71 72 73 74 75 0
-71 76 0
-72 77 0
-73 78 0
-74 79 0
-75 80 0
-76 -72 0
-77 -73 0
-78 -74 0
-79 -75 0
-76 77 0
-77 78 0
-78 79 0
-79 80 0
80 0
81 82 83 84 85 0
-81 86 0
-82 87 0
-83 88 0
-84 89 0
-85 90 0
-86 -82 0
-87 -83 0
-88 -84 0
-89 -85 0
-86 87 0
-87 88 0
-88 89 0
-89 90 0
90 0
91 92 93 94 95 0
-91 96 0
-92 97 0
-93 98 0
-94 99 0
-95 100 0
-96 -92 0
-97 -93 0
-98 -94 0
-99 -95 0
-96 97 0
-97 98 0
-98 99 0
-99 100 0
100 0
101 102 103 104 105 0
-101 106 0
-102 107 0
-103 108 0
-104 109 0
-105 110 0
-106 -102 0
-107 -103 0
-108 -104 0
-109 -105 0
-106 107 0
-107 108 0
-108 109 0
-109 110 0
110 0
111 112 113 114 115 0
-111 116 0
-112 117 0
-113 118 0
-114 119 0
-115 120 0
-116 -112 0
-117 -113 0
-118 -114 0
-119 -115 0
-116 117 0
-117 118 0
-118 119 0
-119 120 0
120 0
121 122 123 124 125 0
-121 126 0
-122 127 0
-123 128 0
-124 129 0
-125 130 0
-126 -122 0
-127 -123 0
-128 -124 0
-129 -125 0
-126 127 0
-127 128 0
-128 129 0
-129 130 0
130 0
131 132 133 134 135 0
-131 136 0
-132 137 0
-133 138 0
-134 139 0
-135 140 0
-136 -132 0
-137 -133 0
-138 -134 0
-139 -135 0
-136 137 0
-137 138 0
-138 139 0
-139 140 0
140 0
141 142 143 144 145 0
-141 146 0
-142 147 0
-143 148 0
-144 149 0
-145 150 0
-146 -142 0
-147 -143 0
-148 -144 0
-149 -145 0
-146 147 0
-147 148 0
-148 149 0
-149 150 0
150 0
151 152 153 154 155 0
-151 156 0
-152 157 0
-153 158 0
-154 159 0
-155 160 0
-156 -152 0
-157 -153 0
-158 -154 0
-159 -155 0
-156 157 0
-157 158 0
-158 159 0
-159 160 0
160 0
161 162 163 164 165 0
-161 166 0
-162 167 0
-163 168 0
-164 169 0
-165 170 0
-166 -162 0
-167 -163 0
-168 -164 0
-169 -165 0
-166 167 0
-167 168 0
-168 169 0
-169 170 0
170 0
171 172 173 174 175 0
-171 176 0
-172 177 0
-173 178 0
-174 179 0
-175 180 0
-176 -172 0
-177 -173 0
-178 -174 0
-179 -175 0
-176 177 0
-177 178 0
-178 179 0
-179 180 0
180 0
181 182 183 184 185 0
-181 186 0
-182 187 0
-183 188 0
-184 189 0
-185 190 0
-186 -182 0
-187 -183 0
-188 -184 0
-189 -185 0
-186 187 0
-187 188 0
-188 189 0
-189 190 0
190 0
191 192 193 194 195 0
-191 196 0
-192 197 0
-193 198 0
-194 199 0
-195 200 0
-196 -192 0
-197 -193 0
-198 -194 0
-199 -195 0
-196 197 0
-197 198 0
-198 199 0
-199 200 0
200 0
201 202 203 204 205 0
-201 206 0
-202 207 0
-203 208 0
-204 209 0
-205 210 0
-206 -202 0
-207 -203 0
-208 -204 0
-209 -205 0
-206 207 0
-207 208 0
-208 209 0
-209 210 0
210 0
211 212 213 214 215 0
-211 216 0
-212 217 0
-213 218 0
-214 219 0
-215 220 0
-216 -212 0
-217 -213 0
-218 -214 0
-219 -215 0
-216 217 0
-217 218 0
-218 219 0
-219 220 0
220 0
221 222 223 224 225 0
-221 226 0
-222 227 0
-223 228 0
-224 229 0
-225 230 0
-226 -222 0
-227 -223 0
-228 -224 0
-229 -225 0
-226 227 0
-227 228 0
-228 229 0
-229 230 0
230 0
231 232 233 234 235 0
-231 236 0
-232 237 0
-233 238 0
-234 239 0
-235 240 0
-236 -232 0
-237 -233 0
-238 -234 0
-239 -235 0
-236 237 0
-237 238 0
-238 239 0
-239 240 0
240 0
241 242 243 244 245 0
-241 246 0
-242 247 0
-243 248 0
-244 249 0
-245 250 0
-246 -242 0
-247 -243 0
-248 -244 0
-249 -245 0
-246 247 0
-247 248 0
-248 249 0
-249 250 0
250 0
-1 -11 0
-2 -12 0
-3 -13 0
-4 -14 0
-5 -15 0
-1 -21 0
-2 -22 0
-3 -23 0
-4 -24 0
-5 -25 0
-1 -31 0
-2 -32 0
-3 -33 0
-4 -34 0
-5 -35 0
-1 -41 0
-2 -42 0
-3 -43 0
-4 -44 0
-5 -45 0
-1 -51 0
-2 -52 0
-3 -53 0
-4 -54 0
-5 -55 0
-1 -61 0
-2 -62 0
-3 -63 0
-4 -64 0
-5 -65 0
-1 -71 0
-2 -72 0
-3 -73 0
-4 -74 0
-5 -75 0
-1 -81 0
-2 -82 0
-3 -83 0
-4 -84 0
-5 -85 0
-11 -21 0
-12 -22 0
-13 -23 0
-14 -24 0
-15 -25 0
-11 -31 0
-12 -32 0
-13 -33 0
-14 -34 0
-15 -35 0
-11 -41 0
-12 -42 0
-13 -43 0
-14 -44 0
-15 -45 0
-11 -91 0
-12 -92 0
-13 -93 0
-14 -94 0
-15 -95 0
-11 -101 0
-12 -102 0
-13 -103 0
-14 -104 0
-15 -105 0
-11 -111 0
-12 -112 0
-13 -113 0
-14 -114 0
-15 -115 0
-11 -121 0
-12 -122 0
-13 -123 0
-14 -124 0
-15 -125 0
-21 -31 0
-22 -32 0
-23 -33 0
-24 -34 0
-25 -35 0
-21 -41 0
-22 -42 0
-23 -43 0
-24 -44 0
-25 -45 0
-21 -131 0
-22 -132 0
-23 -133 0
-24 -134 0
-25 -135 0
-21 -161 0
-22 -162 0
-23 -163 0
-24 -164 0
-25 -165 0
-21 -171 0
-22 -172 0
-23 -173 0
-24 -174 0
-25 -175 0
-21 -181 0
-22 -182 0
-23 -183 0
-24 -184 0
-25 -185 0
-31 -41 0
-32 -42 0
-33 -43 0
-34 -44 0
-35 -45 0
-31 -141 0
-32 -142 0
-33 -143 0
-34 -144 0
-35 -145 0
-31 -191 0
-32 -192 0
-33 -193 0
-34 -194 0
-35 -195 0
-31 -211 0
-32 -212 0
-33 -213 0
-34 -214 0
-35 -215 0
-31 -221 0
-32 -222 0
-33 -223 0
-34 -224 0
-35 -225 0
-41 -151 0
-42 -152 0
-43 -153 0
-44 -154 0
-45 -155 0
-41 -201 0
-42 -202 0
-43 -203 0
-44 -204 0
-45 -205 0
-41 -231 0
-42 -232 0
-43 -233 0
-44 -234 0
-45 -235 0
-41 -241 0
-42 -242 0
-43 -243 0
-44 -244 0
-45 -245 0
-51 -61 0
-52 -62 0
-53 -63 0
-54 -64 0
-55 -65 0
-51 -71 0
-52 -72 0
-53 -73 0
-54 -74 0
-55 -75 0
-51 -81 0
-52 -82 0
-53 -83 0
-54 -84 0
-55 -85 0
-51 -91 0
-52 -92 0
-53 -93 0
-54 -94 0
-55 -95 0
-51 -131 0
-52 -132 0
-53 -133 0
-54 -134 0
-55 -135 0
-51 -141 0
-52 -142 0
-53 -143 0
-54 -144 0
-55 -145 0
-51 -151 0
-52 -152 0
-53 -153 0
-54 -154 0
-55 -155 0
-61 -71 0
-62 -72 0
-63 -73 0
-64 -74 0
-65 -75 0
-61 -81 0
-62 -82 0
-63 -83 0
-64 -84 0
-65 -85 0
-61 -101 0
-62 -102 0
-63 -103 0
-64 -104 0
-65 -105 0
-61 -161 0
-62 -162 0
-63 -163 0
-64 -164 0
-65 -165 0
-61 -191 0
-62 -192 0
-63 -193 0
-64 -194 0
-65 -195 0
-61 -201 0
-62 -202 0
-63 -203 0
-64 -204 0
-65 -205 0
-71 -81 0
-72 -82 0
-73 -83 0
-74 -84 0
-75 -85 0
-71 -111 0
-72 -112 0
-73 -113 0
-74 -114 0
-75 -115 0
-71 -171 0
-72 -172 0
-73 -173 0
-74 -174 0
-75 -175 0
-71 -211 0
-72 -212 0
-73 -213 0
-74 -214 0
-75 -215 0
-71 -231 0
-72 -232 0
-73 -233 0
-74 -234 0
-75 -235 0
-81 -121 0
-82 -122 0
-83 -123 0
-84 -124 0
-85 -125 0
-81 -181 0
-82 -182 0
-83 -183 0
-84 -184 0
-85 -185 0
-81 -221 0
-82 -222 0
-83 -223 0
-84 -224 0
-85 -225 0
-81 -241 0
-82 -242 0
-83 -243 0
-84 -244 0
-85 -245 0
-91 -101 0
-92 -102 0
-93 -103 0
-94 -104 0
-95 -105 0
-91 -111 0
-92 -112 0
-93 -113 0
-94 -114 0
-95 -115 0
-91 -121 0
-92 -122 0
-93 -123 0
-94 -124 0
-95 -125 0
-91 -131 0
-92 -132 0
-93 -133 0
-94 -134 0
-95 -135 0
-91 -141 0
-92 -142 0
-93 -143 0
-94 -144 0
-95 -145 0
-91 -151 0
-92 -152 0
-93 -153 0
-94 -154 0
-95 -155 0
-101 -111 0
-102 -112 0
-103 -113 0
-104 -114 0
-105 -115 0
-101 -121 0
-102 -122 0
-103 -123 0
-104 -124 0
-105 -125 0
-101 -161 0
-102 -162 0
-103 -163 0
-104 -164 0
-105 -165 0
-101 -191 0
-102 -192 0
-103 -193 0
-104 -194 0
-105 -195 0
-101 -201 0
-102 -202 0
-103 -203 0
-104 -204 0
-105 -205 0
-111 -121 0
-112 -122 0
-113 -123 0
-114 -124 0
-115 -125 0
-111 -171 0
-112 -172 0
-113 -173 0
-114 -174 0
-115 -175 0
-111 -211 0
-112 -212 0
-113 -213 0
-114 -214 0
-115 -215 0
-111 -231 0
-112 -232 0
-113 -233 0
-114 -234 0
-115 -235 0
-121 -181 0
-122 -182 0
-123 -183 0
-124 -184 0
-125 -185 0
-121 -221 0
-122 -222 0
-123 -223 0
-124 -224 0
-125 -225 0
-121 -241 0
-122 -242 0
-123 -243 0
-124 -244 0
-125 -245 0
-131 -141 0
-132 -142 0
-133 -143 0
-134 -144 0
-135 -145 0
-131 -151 0
-132 -152 0
-133 -153 0
-134 -154 0
-135 -155 0
-131 -161 0
-132 -162 0
-133 -163 0
-134 -164 0
-135 -165 0
-131 -171 0
-132 -172 0
-133 -173 0
-134 -174 0
-135 -175 0
-131 -181 0
-132 -182 0
-133 -183 0
-134 -184 0
-135 -185 0
-141 -151 0
-142 -152 0
-143 -153 0
-144 -154 0
-145 -155 0
-141 -191 0
-142 -192 0
-143 -193 0
-144 -194 0
-145 -195 0
-141 -211 0
-142 -212 0
-143 -213 0
-144 -214 0
-145 -215 0
-141 -221 0
-142 -222 0
-143 -223 0
-144 -224 0
-145 -225 0
-151 -201 0
-152 -202 0
-153 -203 0
-154 -204 0
-155 -205 0
-151 -231 0
-152 -232 0
-153 -233 0
-154 -234 0
-155 -235 0
-151 -241 0
-152 -242 0
-153 -243 0
-154 -244 0
-155 -245 0
-161 -171 0
-162 -172 0
-163 -173 0
-164 -174 0
-165 -175 0
-161 -181 0
-162 -182 0
-163 -183 0
-164 -184 0
-165 -185 0
-161 -191 0
-162 -192 0
-163 -193 0
-164 -194 0
-165 -195 0
-161 -201 0
-162 -202 0
-163 -203 0
-164 -204 0
-165 -205 0
-171 -181 0
-172 -182 0
-173 -183 0
-174 -184 0
-175 -185 0
-171 -211 0
-172 -212 0
-173 -213 0
-174 -214 0
-175 -215 0
-171 -231 0
-172 -232 0
-173 -233 0
-174 -234 0
-175 -235 0
-181 -221 0
-182 -222 0
-183 -223 0
-184 -224 0
-185 -225 0
-181 -241 0
-182 -242 0
-183 -243 0
-184 -244 0
-185 -245 0
-191 -201 0
-192 -202 0
-193 -203 0
-194 -204 0
-195 -205 0
-191 -211 0
-192 -212 0
-193 -213 0
-194 -214 0
-195 -215 0
-191 -221 0
-192 -222 0
-193 -223 0
-194 -224 0
-195 -225 0
-201 -231 0
-202 -232 0
-203 -233 0
-204 -234 0
-205 -235 0
-201 -241 0
-202 -242 0
-203 -243 0
-204 -244 0
-205 -245 0
-211 -221 0
-212 -222 0
-213 -223 0
-214 -224 0
-215 -225 0
-211 -231 0
-212 -232 0
-213 -233 0
-214 -234 0
-215 -235 0
-221 -241 0
-222 -242 0
-223 -243 0
-224 -244 0
-225 -245 0
-231 -241 0
-232 -242 0
-233 -243 0
-234 -244 0
-235 -245 0
