CNF/sr25832G1vcol5.txt
Vertex 0: Color 4
Vertex 1: Color 1
Vertex 2: Color 2
Vertex 3: Color 3
Vertex 4: Color 5
Vertex 5: Color 3
Vertex 6: Color 2
Vertex 7: Color 5
Vertex 8: Color 1
Vertex 9: Color 5
Vertex 10: Color 3
Vertex 11: Color 2
Vertex 12: Color 4
Vertex 13: Color 1
Vertex 14: Color 2
Vertex 15: Color 4
Vertex 16: Color 5
Vertex 17: Color 4
Vertex 18: Color 3
Vertex 19: Color 4
Vertex 20: Color 1
Vertex 21: Color 1
Vertex 22: Color 5
Vertex 23: Color 3
Vertex 24: Color 2
